HUN,8,6,795
2,27,1,21,0,6,4,9,3,30,5,21
1,15,0,1,2,1,5,10,3,14,4,12
0,6,2,14,1,5,5,11,4,9,3,26
1,6,0,8,2,25,5,28,3,21,4,30
2,21,0,1,1,12,5,19,3,23,4,16
2,17,0,26,1,27,4,14,3,30,5,19
2,15,1,18,0,4,4,30,5,26,3,30
2,17,1,4,0,3,4,3,3,28,5,8
